webassembly/ejemplos_results/5/folder5_json_22.txt
value = 5;
fgas = [1, 1, 1, 1, 1];
fsize = [1, 1, 1, 1, 1];
states = 
[|    in_0,    in_1,  '.',  '.', '.', '.', '.', '.', '.'
 | local_1,    in_0, in_1,  '.', '.', '.', '.', '.', '.'
 |  's(2)', local_1, in_0, in_1, '.', '.', '.', '.', '.'
 |  's(0)',    in_0, in_1,  '.', '.', '.', '.', '.', '.'
 |  's(1)',    in_1,  '.',  '.', '.', '.', '.', '.', '.'
 |     '.',     '.',  '.',  '.', '.', '.', '.', '.', '.'
 |];
register_states = 
[| '.', '.', '.'
 | '.', '.', '.'
 | '.', '.', '.'
 | '.', '.', '.'
 | '.', '.', '.'
 | '.', '.', '.'
 |];
program = [O('local.get_0'), O('i32.const_0'), O('i32.sub_0'), O('i32.sub_1'), O('i32.store16_4')];
% time elapsed: 0.07 s
----------
==========
% time elapsed: 0.07 s
% [value > 4]
